c description: Tseitin formula on Random 5-regular graph of 70 vertices, with odd charge
c generator: CNFgen (0.9.0)
c copyright: (C) 2012-2020 Massimo Lauria <massimo.lauria@uniroma1.it>
c url: https://massimolauria.net/cnfgen
c random seed: 1
c command line: cnfgen --seed 1 tseitin randomodd gnd 70 5
c
p cnf 175 1120
1 2 3 4 -5 0
1 2 3 -4 5 0
1 2 -3 4 5 0
1 2 -3 -4 -5 0
1 -2 3 4 5 0
1 -2 3 -4 -5 0
1 -2 -3 4 -5 0
1 -2 -3 -4 5 0
-1 2 3 4 5 0
-1 2 3 -4 -5 0
-1 2 -3 4 -5 0
-1 2 -3 -4 5 0
-1 -2 3 4 -5 0
-1 -2 3 -4 5 0
-1 -2 -3 4 5 0
-1 -2 -3 -4 -5 0
6 7 8 9 -10 0
6 7 8 -9 10 0
6 7 -8 9 10 0
6 7 -8 -9 -10 0
6 -7 8 9 10 0
6 -7 8 -9 -10 0
6 -7 -8 9 -10 0
6 -7 -8 -9 10 0
-6 7 8 9 10 0
-6 7 8 -9 -10 0
-6 7 -8 9 -10 0
-6 7 -8 -9 10 0
-6 -7 8 9 -10 0
-6 -7 8 -9 10 0
-6 -7 -8 9 10 0
-6 -7 -8 -9 -10 0
11 12 13 14 15 0
11 12 13 -14 -15 0
11 12 -13 14 -15 0
11 12 -13 -14 15 0
11 -12 13 14 -15 0
11 -12 13 -14 15 0
11 -12 -13 14 15 0
11 -12 -13 -14 -15 0
-11 12 13 14 -15 0
-11 12 13 -14 15 0
-11 12 -13 14 15 0
-11 12 -13 -14 -15 0
-11 -12 13 14 15 0
-11 -12 13 -14 -15 0
-11 -12 -13 14 -15 0
-11 -12 -13 -14 15 0
6 16 17 18 -19 0
6 16 17 -18 19 0
6 16 -17 18 19 0
6 16 -17 -18 -19 0
6 -16 17 18 19 0
6 -16 17 -18 -19 0
6 -16 -17 18 -19 0
6 -16 -17 -18 19 0
-6 16 17 18 19 0
-6 16 17 -18 -19 0
-6 16 -17 18 -19 0
-6 16 -17 -18 19 0
-6 -16 17 18 -19 0
-6 -16 17 -18 19 0
-6 -16 -17 18 19 0
-6 -16 -17 -18 -19 0
20 21 22 23 24 0
20 21 22 -23 -24 0
20 21 -22 23 -24 0
20 21 -22 -23 24 0
20 -21 22 23 -24 0
20 -21 22 -23 24 0
20 -21 -22 23 24 0
20 -21 -22 -23 -24 0
-20 21 22 23 -24 0
-20 21 22 -23 24 0
-20 21 -22 23 24 0
-20 21 -22 -23 -24 0
-20 -21 22 23 24 0
-20 -21 22 -23 -24 0
-20 -21 -22 23 -24 0
-20 -21 -22 -23 24 0
25 26 27 28 29 0
25 26 27 -28 -29 0
25 26 -27 28 -29 0
25 26 -27 -28 29 0
25 -26 27 28 -29 0
25 -26 27 -28 29 0
25 -26 -27 28 29 0
25 -26 -27 -28 -29 0
-25 26 27 28 -29 0
-25 26 27 -28 29 0
-25 26 -27 28 29 0
-25 26 -27 -28 -29 0
-25 -26 27 28 29 0
-25 -26 27 -28 -29 0
-25 -26 -27 28 -29 0
-25 -26 -27 -28 29 0
30 31 32 33 34 0
30 31 32 -33 -34 0
30 31 -32 33 -34 0
30 31 -32 -33 34 0
30 -31 32 33 -34 0
30 -31 32 -33 34 0
30 -31 -32 33 34 0
30 -31 -32 -33 -34 0
-30 31 32 33 -34 0
-30 31 32 -33 34 0
-30 31 -32 33 34 0
-30 31 -32 -33 -34 0
-30 -31 32 33 34 0
-30 -31 32 -33 -34 0
-30 -31 -32 33 -34 0
-30 -31 -32 -33 34 0
35 36 37 38 39 0
35 36 37 -38 -39 0
35 36 -37 38 -39 0
35 36 -37 -38 39 0
35 -36 37 38 -39 0
35 -36 37 -38 39 0
35 -36 -37 38 39 0
35 -36 -37 -38 -39 0
-35 36 37 38 -39 0
-35 36 37 -38 39 0
-35 36 -37 38 39 0
-35 36 -37 -38 -39 0
-35 -36 37 38 39 0
-35 -36 37 -38 -39 0
-35 -36 -37 38 -39 0
-35 -36 -37 -38 39 0
40 41 42 43 -44 0
40 41 42 -43 44 0
40 41 -42 43 44 0
40 41 -42 -43 -44 0
40 -41 42 43 44 0
40 -41 42 -43 -44 0
40 -41 -42 43 -44 0
40 -41 -42 -43 44 0
-40 41 42 43 44 0
-40 41 42 -43 -44 0
-40 41 -42 43 -44 0
-40 41 -42 -43 44 0
-40 -41 42 43 -44 0
-40 -41 42 -43 44 0
-40 -41 -42 43 44 0
-40 -41 -42 -43 -44 0
1 45 46 47 -48 0
1 45 46 -47 48 0
1 45 -46 47 48 0
1 45 -46 -47 -48 0
1 -45 46 47 48 0
1 -45 46 -47 -48 0
1 -45 -46 47 -48 0
1 -45 -46 -47 48 0
-1 45 46 47 48 0
-1 45 46 -47 -48 0
-1 45 -46 47 -48 0
-1 45 -46 -47 48 0
-1 -45 46 47 -48 0
-1 -45 46 -47 48 0
-1 -45 -46 47 48 0
-1 -45 -46 -47 -48 0
11 25 49 50 51 0
11 25 49 -50 -51 0
11 25 -49 50 -51 0
11 25 -49 -50 51 0
11 -25 49 50 -51 0
11 -25 49 -50 51 0
11 -25 -49 50 51 0
11 -25 -49 -50 -51 0
-11 25 49 50 -51 0
-11 25 49 -50 51 0
-11 25 -49 50 51 0
-11 25 -49 -50 -51 0
-11 -25 49 50 51 0
-11 -25 49 -50 -51 0
-11 -25 -49 50 -51 0
-11 -25 -49 -50 51 0
20 52 53 54 -55 0
20 52 53 -54 55 0
20 52 -53 54 55 0
20 52 -53 -54 -55 0
20 -52 53 54 55 0
20 -52 53 -54 -55 0
20 -52 -53 54 -55 0
20 -52 -53 -54 55 0
-20 52 53 54 55 0
-20 52 53 -54 -55 0
-20 52 -53 54 -55 0
-20 52 -53 -54 55 0
-20 -52 53 54 -55 0
-20 -52 53 -54 55 0
-20 -52 -53 54 55 0
-20 -52 -53 -54 -55 0
26 35 56 57 58 0
26 35 56 -57 -58 0
26 35 -56 57 -58 0
26 35 -56 -57 58 0
26 -35 56 57 -58 0
26 -35 56 -57 58 0
26 -35 -56 57 58 0
26 -35 -56 -57 -58 0
-26 35 56 57 -58 0
-26 35 56 -57 58 0
-26 35 -56 57 58 0
-26 35 -56 -57 -58 0
-26 -35 56 57 58 0
-26 -35 56 -57 -58 0
-26 -35 -56 57 -58 0
-26 -35 -56 -57 58 0
45 59 60 61 62 0
45 59 60 -61 -62 0
45 59 -60 61 -62 0
45 59 -60 -61 62 0
45 -59 60 61 -62 0
45 -59 60 -61 62 0
45 -59 -60 61 62 0
45 -59 -60 -61 -62 0
-45 59 60 61 -62 0
-45 59 60 -61 62 0
-45 59 -60 61 62 0
-45 59 -60 -61 -62 0
-45 -59 60 61 62 0
-45 -59 60 -61 -62 0
-45 -59 -60 61 -62 0
-45 -59 -60 -61 62 0
56 63 64 65 -66 0
56 63 64 -65 66 0
56 63 -64 65 66 0
56 63 -64 -65 -66 0
56 -63 64 65 66 0
56 -63 64 -65 -66 0
56 -63 -64 65 -66 0
56 -63 -64 -65 66 0
-56 63 64 65 66 0
-56 63 64 -65 -66 0
-56 63 -64 65 -66 0
-56 63 -64 -65 66 0
-56 -63 64 65 -66 0
-56 -63 64 -65 66 0
-56 -63 -64 65 66 0
-56 -63 -64 -65 -66 0
67 68 69 70 71 0
67 68 69 -70 -71 0
67 68 -69 70 -71 0
67 68 -69 -70 71 0
67 -68 69 70 -71 0
67 -68 69 -70 71 0
67 -68 -69 70 71 0
67 -68 -69 -70 -71 0
-67 68 69 70 -71 0
-67 68 69 -70 71 0
-67 68 -69 70 71 0
-67 68 -69 -70 -71 0
-67 -68 69 70 71 0
-67 -68 69 -70 -71 0
-67 -68 -69 70 -71 0
-67 -68 -69 -70 71 0
36 52 57 72 73 0
36 52 57 -72 -73 0
36 52 -57 72 -73 0
36 52 -57 -72 73 0
36 -52 57 72 -73 0
36 -52 57 -72 73 0
36 -52 -57 72 73 0
36 -52 -57 -72 -73 0
-36 52 57 72 -73 0
-36 52 57 -72 73 0
-36 52 -57 72 73 0
-36 52 -57 -72 -73 0
-36 -52 57 72 73 0
-36 -52 57 -72 -73 0
-36 -52 -57 72 -73 0
-36 -52 -57 -72 73 0
74 75 76 77 -78 0
74 75 76 -77 78 0
74 75 -76 77 78 0
74 75 -76 -77 -78 0
74 -75 76 77 78 0
74 -75 76 -77 -78 0
74 -75 -76 77 -78 0
74 -75 -76 -77 78 0
-74 75 76 77 78 0
-74 75 76 -77 -78 0
-74 75 -76 77 -78 0
-74 75 -76 -77 78 0
-74 -75 76 77 -78 0
-74 -75 76 -77 78 0
-74 -75 -76 77 78 0
-74 -75 -76 -77 -78 0
30 40 79 80 -81 0
30 40 79 -80 81 0
30 40 -79 80 81 0
30 40 -79 -80 -81 0
30 -40 79 80 81 0
30 -40 79 -80 -81 0
30 -40 -79 80 -81 0
30 -40 -79 -80 81 0
-30 40 79 80 81 0
-30 40 79 -80 -81 0
-30 40 -79 80 -81 0
-30 40 -79 -80 81 0
-30 -40 79 80 -81 0
-30 -40 79 -80 81 0
-30 -40 -79 80 81 0
-30 -40 -79 -80 -81 0
41 82 83 84 85 0
41 82 83 -84 -85 0
41 82 -83 84 -85 0
41 82 -83 -84 85 0
41 -82 83 84 -85 0
41 -82 83 -84 85 0
41 -82 -83 84 85 0
41 -82 -83 -84 -85 0
-41 82 83 84 -85 0
-41 82 83 -84 85 0
-41 82 -83 84 85 0
-41 82 -83 -84 -85 0
-41 -82 83 84 85 0
-41 -82 83 -84 -85 0
-41 -82 -83 84 -85 0
-41 -82 -83 -84 85 0
82 86 87 88 -89 0
82 86 87 -88 89 0
82 86 -87 88 89 0
82 86 -87 -88 -89 0
82 -86 87 88 89 0
82 -86 87 -88 -89 0
82 -86 -87 88 -89 0
82 -86 -87 -88 89 0
-82 86 87 88 89 0
-82 86 87 -88 -89 0
-82 86 -87 88 -89 0
-82 86 -87 -88 89 0
-82 -86 87 88 -89 0
-82 -86 87 -88 89 0
-82 -86 -87 88 89 0
-82 -86 -87 -88 -89 0
27 90 91 92 -93 0
27 90 91 -92 93 0
27 90 -91 92 93 0
27 90 -91 -92 -93 0
27 -90 91 92 93 0
27 -90 91 -92 -93 0
27 -90 -91 92 -93 0
27 -90 -91 -92 93 0
-27 90 91 92 93 0
-27 90 91 -92 -93 0
-27 90 -91 92 -93 0
-27 90 -91 -92 93 0
-27 -90 91 92 -93 0
-27 -90 91 -92 93 0
-27 -90 -91 92 93 0
-27 -90 -91 -92 -93 0
94 95 96 97 -98 0
94 95 96 -97 98 0
94 95 -96 97 98 0
94 95 -96 -97 -98 0
94 -95 96 97 98 0
94 -95 96 -97 -98 0
94 -95 -96 97 -98 0
94 -95 -96 -97 98 0
-94 95 96 97 98 0
-94 95 96 -97 -98 0
-94 95 -96 97 -98 0
-94 95 -96 -97 98 0
-94 -95 96 97 -98 0
-94 -95 96 -97 98 0
-94 -95 -96 97 98 0
-94 -95 -96 -97 -98 0
28 99 100 101 -102 0
28 99 100 -101 102 0
28 99 -100 101 102 0
28 99 -100 -101 -102 0
28 -99 100 101 102 0
28 -99 100 -101 -102 0
28 -99 -100 101 -102 0
28 -99 -100 -101 102 0
-28 99 100 101 102 0
-28 99 100 -101 -102 0
-28 99 -100 101 -102 0
-28 99 -100 -101 102 0
-28 -99 100 101 -102 0
-28 -99 100 -101 102 0
-28 -99 -100 101 102 0
-28 -99 -100 -101 -102 0
42 86 103 104 105 0
42 86 103 -104 -105 0
42 86 -103 104 -105 0
42 86 -103 -104 105 0
42 -86 103 104 -105 0
42 -86 103 -104 105 0
42 -86 -103 104 105 0
42 -86 -103 -104 -105 0
-42 86 103 104 -105 0
-42 86 103 -104 105 0
-42 86 -103 104 105 0
-42 86 -103 -104 -105 0
-42 -86 103 104 105 0
-42 -86 103 -104 -105 0
-42 -86 -103 104 -105 0
-42 -86 -103 -104 105 0
12 31 67 83 -106 0
12 31 67 -83 106 0
12 31 -67 83 106 0
12 31 -67 -83 -106 0
12 -31 67 83 106 0
12 -31 67 -83 -106 0
12 -31 -67 83 -106 0
12 -31 -67 -83 106 0
-12 31 67 83 106 0
-12 31 67 -83 -106 0
-12 31 -67 83 -106 0
-12 31 -67 -83 106 0
-12 -31 67 83 -106 0
-12 -31 67 -83 106 0
-12 -31 -67 83 106 0
-12 -31 -67 -83 -106 0
7 107 108 109 110 0
7 107 108 -109 -110 0
7 107 -108 109 -110 0
7 107 -108 -109 110 0
7 -107 108 109 -110 0
7 -107 108 -109 110 0
7 -107 -108 109 110 0
7 -107 -108 -109 -110 0
-7 107 108 109 -110 0
-7 107 108 -109 110 0
-7 107 -108 109 110 0
-7 107 -108 -109 -110 0
-7 -107 108 109 110 0
-7 -107 108 -109 -110 0
-7 -107 -108 109 -110 0
-7 -107 -108 -109 110 0
111 112 113 114 -115 0
111 112 113 -114 115 0
111 112 -113 114 115 0
111 112 -113 -114 -115 0
111 -112 113 114 115 0
111 -112 113 -114 -115 0
111 -112 -113 114 -115 0
111 -112 -113 -114 115 0
-111 112 113 114 115 0
-111 112 113 -114 -115 0
-111 112 -113 114 -115 0
-111 112 -113 -114 115 0
-111 -112 113 114 -115 0
-111 -112 113 -114 115 0
-111 -112 -113 114 115 0
-111 -112 -113 -114 -115 0
59 116 117 118 -119 0
59 116 117 -118 119 0
59 116 -117 118 119 0
59 116 -117 -118 -119 0
59 -116 117 118 119 0
59 -116 117 -118 -119 0
59 -116 -117 118 -119 0
59 -116 -117 -118 119 0
-59 116 117 118 119 0
-59 116 117 -118 -119 0
-59 116 -117 118 -119 0
-59 116 -117 -118 119 0
-59 -116 117 118 -119 0
-59 -116 117 -118 119 0
-59 -116 -117 118 119 0
-59 -116 -117 -118 -119 0
13 16 46 74 120 0
13 16 46 -74 -120 0
13 16 -46 74 -120 0
13 16 -46 -74 120 0
13 -16 46 74 -120 0
13 -16 46 -74 120 0
13 -16 -46 74 120 0
13 -16 -46 -74 -120 0
-13 16 46 74 -120 0
-13 16 46 -74 120 0
-13 16 -46 74 120 0
-13 16 -46 -74 -120 0
-13 -16 46 74 120 0
-13 -16 46 -74 -120 0
-13 -16 -46 74 -120 0
-13 -16 -46 -74 120 0
37 94 107 121 122 0
37 94 107 -121 -122 0
37 94 -107 121 -122 0
37 94 -107 -121 122 0
37 -94 107 121 -122 0
37 -94 107 -121 122 0
37 -94 -107 121 122 0
37 -94 -107 -121 -122 0
-37 94 107 121 -122 0
-37 94 107 -121 122 0
-37 94 -107 121 122 0
-37 94 -107 -121 -122 0
-37 -94 107 121 122 0
-37 -94 107 -121 -122 0
-37 -94 -107 121 -122 0
-37 -94 -107 -121 122 0
17 53 123 124 -125 0
17 53 123 -124 125 0
17 53 -123 124 125 0
17 53 -123 -124 -125 0
17 -53 123 124 125 0
17 -53 123 -124 -125 0
17 -53 -123 124 -125 0
17 -53 -123 -124 125 0
-17 53 123 124 125 0
-17 53 123 -124 -125 0
-17 53 -123 124 -125 0
-17 53 -123 -124 125 0
-17 -53 123 124 -125 0
-17 -53 123 -124 125 0
-17 -53 -123 124 125 0
-17 -53 -123 -124 -125 0
2 32 108 126 127 0
2 32 108 -126 -127 0
2 32 -108 126 -127 0
2 32 -108 -126 127 0
2 -32 108 126 -127 0
2 -32 108 -126 127 0
2 -32 -108 126 127 0
2 -32 -108 -126 -127 0
-2 32 108 126 -127 0
-2 32 108 -126 127 0
-2 32 -108 126 127 0
-2 32 -108 -126 -127 0
-2 -32 108 126 127 0
-2 -32 108 -126 -127 0
-2 -32 -108 126 -127 0
-2 -32 -108 -126 127 0
33 103 128 129 -130 0
33 103 128 -129 130 0
33 103 -128 129 130 0
33 103 -128 -129 -130 0
33 -103 128 129 130 0
33 -103 128 -129 -130 0
33 -103 -128 129 -130 0
33 -103 -128 -129 130 0
-33 103 128 129 130 0
-33 103 128 -129 -130 0
-33 103 -128 129 -130 0
-33 103 -128 -129 130 0
-33 -103 128 129 -130 0
-33 -103 128 -129 130 0
-33 -103 -128 129 130 0
-33 -103 -128 -129 -130 0
34 72 79 131 -132 0
34 72 79 -131 132 0
34 72 -79 131 132 0
34 72 -79 -131 -132 0
34 -72 79 131 132 0
34 -72 79 -131 -132 0
34 -72 -79 131 -132 0
34 -72 -79 -131 132 0
-34 72 79 131 132 0
-34 72 79 -131 -132 0
-34 72 -79 131 -132 0
-34 72 -79 -131 132 0
-34 -72 79 131 -132 0
-34 -72 79 -131 132 0
-34 -72 -79 131 132 0
-34 -72 -79 -131 -132 0
58 109 133 134 135 0
58 109 133 -134 -135 0
58 109 -133 134 -135 0
58 109 -133 -134 135 0
58 -109 133 134 -135 0
58 -109 133 -134 135 0
58 -109 -133 134 135 0
58 -109 -133 -134 -135 0
-58 109 133 134 -135 0
-58 109 133 -134 135 0
-58 109 -133 134 135 0
-58 109 -133 -134 -135 0
-58 -109 133 134 135 0
-58 -109 133 -134 -135 0
-58 -109 -133 134 -135 0
-58 -109 -133 -134 135 0
43 47 136 137 138 0
43 47 136 -137 -138 0
43 47 -136 137 -138 0
43 47 -136 -137 138 0
43 -47 136 137 -138 0
43 -47 136 -137 138 0
43 -47 -136 137 138 0
43 -47 -136 -137 -138 0
-43 47 136 137 -138 0
-43 47 136 -137 138 0
-43 47 -136 137 138 0
-43 47 -136 -137 -138 0
-43 -47 136 137 138 0
-43 -47 136 -137 -138 0
-43 -47 -136 137 -138 0
-43 -47 -136 -137 138 0
14 116 136 139 -140 0
14 116 136 -139 140 0
14 116 -136 139 140 0
14 116 -136 -139 -140 0
14 -116 136 139 140 0
14 -116 136 -139 -140 0
14 -116 -136 139 -140 0
14 -116 -136 -139 140 0
-14 116 136 139 140 0
-14 116 136 -139 -140 0
-14 116 -136 139 -140 0
-14 116 -136 -139 140 0
-14 -116 136 139 -140 0
-14 -116 136 -139 140 0
-14 -116 -136 139 140 0
-14 -116 -136 -139 -140 0
75 141 142 143 144 0
75 141 142 -143 -144 0
75 141 -142 143 -144 0
75 141 -142 -143 144 0
75 -141 142 143 -144 0
75 -141 142 -143 144 0
75 -141 -142 143 144 0
75 -141 -142 -143 -144 0
-75 141 142 143 -144 0
-75 141 142 -143 144 0
-75 141 -142 143 144 0
-75 141 -142 -143 -144 0
-75 -141 142 143 144 0
-75 -141 142 -143 -144 0
-75 -141 -142 143 -144 0
-75 -141 -142 -143 144 0
145 146 147 148 -149 0
145 146 147 -148 149 0
145 146 -147 148 149 0
145 146 -147 -148 -149 0
145 -146 147 148 149 0
145 -146 147 -148 -149 0
145 -146 -147 148 -149 0
145 -146 -147 -148 149 0
-145 146 147 148 149 0
-145 146 147 -148 -149 0
-145 146 -147 148 -149 0
-145 146 -147 -148 149 0
-145 -146 147 148 -149 0
-145 -146 147 -148 149 0
-145 -146 -147 148 149 0
-145 -146 -147 -148 -149 0
54 99 104 150 -151 0
54 99 104 -150 151 0
54 99 -104 150 151 0
54 99 -104 -150 -151 0
54 -99 104 150 151 0
54 -99 104 -150 -151 0
54 -99 -104 150 -151 0
54 -99 -104 -150 151 0
-54 99 104 150 151 0
-54 99 104 -150 -151 0
-54 99 -104 150 -151 0
-54 99 -104 -150 151 0
-54 -99 104 150 -151 0
-54 -99 104 -150 151 0
-54 -99 -104 150 151 0
-54 -99 -104 -150 -151 0
73 90 95 145 152 0
73 90 95 -145 -152 0
73 90 -95 145 -152 0
73 90 -95 -145 152 0
73 -90 95 145 -152 0
73 -90 95 -145 152 0
73 -90 -95 145 152 0
73 -90 -95 -145 -152 0
-73 90 95 145 -152 0
-73 90 95 -145 152 0
-73 90 -95 145 152 0
-73 90 -95 -145 -152 0
-73 -90 95 145 152 0
-73 -90 95 -145 -152 0
-73 -90 -95 145 -152 0
-73 -90 -95 -145 152 0
8 60 153 154 -155 0
8 60 153 -154 155 0
8 60 -153 154 155 0
8 60 -153 -154 -155 0
8 -60 153 154 155 0
8 -60 153 -154 -155 0
8 -60 -153 154 -155 0
8 -60 -153 -154 155 0
-8 60 153 154 155 0
-8 60 153 -154 -155 0
-8 60 -153 154 -155 0
-8 60 -153 -154 155 0
-8 -60 153 154 -155 0
-8 -60 153 -154 155 0
-8 -60 -153 154 155 0
-8 -60 -153 -154 -155 0
21 63 105 146 156 0
21 63 105 -146 -156 0
21 63 -105 146 -156 0
21 63 -105 -146 156 0
21 -63 105 146 -156 0
21 -63 105 -146 156 0
21 -63 -105 146 156 0
21 -63 -105 -146 -156 0
-21 63 105 146 -156 0
-21 63 105 -146 156 0
-21 63 -105 146 156 0
-21 63 -105 -146 -156 0
-21 -63 105 146 156 0
-21 -63 105 -146 -156 0
-21 -63 -105 146 -156 0
-21 -63 -105 -146 156 0
68 100 117 128 157 0
68 100 117 -128 -157 0
68 100 -117 128 -157 0
68 100 -117 -128 157 0
68 -100 117 128 -157 0
68 -100 117 -128 157 0
68 -100 -117 128 157 0
68 -100 -117 -128 -157 0
-68 100 117 128 -157 0
-68 100 117 -128 157 0
-68 100 -117 128 157 0
-68 100 -117 -128 -157 0
-68 -100 117 128 157 0
-68 -100 117 -128 -157 0
-68 -100 -117 128 -157 0
-68 -100 -117 -128 157 0
15 38 84 139 -158 0
15 38 84 -139 158 0
15 38 -84 139 158 0
15 38 -84 -139 -158 0
15 -38 84 139 158 0
15 -38 84 -139 -158 0
15 -38 -84 139 -158 0
15 -38 -84 -139 158 0
-15 38 84 139 158 0
-15 38 84 -139 -158 0
-15 38 -84 139 -158 0
-15 38 -84 -139 158 0
-15 -38 84 139 -158 0
-15 -38 84 -139 158 0
-15 -38 -84 139 158 0
-15 -38 -84 -139 -158 0
22 48 87 121 126 0
22 48 87 -121 -126 0
22 48 -87 121 -126 0
22 48 -87 -121 126 0
22 -48 87 121 -126 0
22 -48 87 -121 126 0
22 -48 -87 121 126 0
22 -48 -87 -121 -126 0
-22 48 87 121 -126 0
-22 48 87 -121 126 0
-22 48 -87 121 126 0
-22 48 -87 -121 -126 0
-22 -48 87 121 126 0
-22 -48 87 -121 -126 0
-22 -48 -87 121 -126 0
-22 -48 -87 -121 126 0
55 61 80 111 159 0
55 61 80 -111 -159 0
55 61 -80 111 -159 0
55 61 -80 -111 159 0
55 -61 80 111 -159 0
55 -61 80 -111 159 0
55 -61 -80 111 159 0
55 -61 -80 -111 -159 0
-55 61 80 111 -159 0
-55 61 80 -111 159 0
-55 61 -80 111 159 0
-55 61 -80 -111 -159 0
-55 -61 80 111 159 0
-55 -61 80 -111 -159 0
-55 -61 -80 111 -159 0
-55 -61 -80 -111 159 0
64 85 96 153 160 0
64 85 96 -153 -160 0
64 85 -96 153 -160 0
64 85 -96 -153 160 0
64 -85 96 153 -160 0
64 -85 96 -153 160 0
64 -85 -96 153 160 0
64 -85 -96 -153 -160 0
-64 85 96 153 -160 0
-64 85 96 -153 160 0
-64 85 -96 153 160 0
-64 85 -96 -153 -160 0
-64 -85 96 153 160 0
-64 -85 96 -153 -160 0
-64 -85 -96 153 -160 0
-64 -85 -96 -153 160 0
91 127 133 147 161 0
91 127 133 -147 -161 0
91 127 -133 147 -161 0
91 127 -133 -147 161 0
91 -127 133 147 -161 0
91 -127 133 -147 161 0
91 -127 -133 147 161 0
91 -127 -133 -147 -161 0
-91 127 133 147 -161 0
-91 127 133 -147 161 0
-91 127 -133 147 161 0
-91 127 -133 -147 -161 0
-91 -127 133 147 161 0
-91 -127 133 -147 -161 0
-91 -127 -133 147 -161 0
-91 -127 -133 -147 161 0
3 9 39 62 -162 0
3 9 39 -62 162 0
3 9 -39 62 162 0
3 9 -39 -62 -162 0
3 -9 39 62 162 0
3 -9 39 -62 -162 0
3 -9 -39 62 -162 0
3 -9 -39 -62 162 0
-3 9 39 62 162 0
-3 9 39 -62 -162 0
-3 9 -39 62 -162 0
-3 9 -39 -62 162 0
-3 -9 39 62 -162 0
-3 -9 39 -62 162 0
-3 -9 -39 62 162 0
-3 -9 -39 -62 -162 0
4 18 101 141 163 0
4 18 101 -141 -163 0
4 18 -101 141 -163 0
4 18 -101 -141 163 0
4 -18 101 141 -163 0
4 -18 101 -141 163 0
4 -18 -101 141 163 0
4 -18 -101 -141 -163 0
-4 18 101 141 -163 0
-4 18 101 -141 163 0
-4 18 -101 141 163 0
-4 18 -101 -141 -163 0
-4 -18 101 141 163 0
-4 -18 101 -141 -163 0
-4 -18 -101 141 -163 0
-4 -18 -101 -141 163 0
29 49 157 161 -164 0
29 49 157 -161 164 0
29 49 -157 161 164 0
29 49 -157 -161 -164 0
29 -49 157 161 164 0
29 -49 157 -161 -164 0
29 -49 -157 161 -164 0
29 -49 -157 -161 164 0
-29 49 157 161 164 0
-29 49 157 -161 -164 0
-29 49 -157 161 -164 0
-29 49 -157 -161 164 0
-29 -49 157 161 -164 0
-29 -49 157 -161 164 0
-29 -49 -157 161 164 0
-29 -49 -157 -161 -164 0
19 50 122 160 165 0
19 50 122 -160 -165 0
19 50 -122 160 -165 0
19 50 -122 -160 165 0
19 -50 122 160 -165 0
19 -50 122 -160 165 0
19 -50 -122 160 165 0
19 -50 -122 -160 -165 0
-19 50 122 160 -165 0
-19 50 122 -160 165 0
-19 50 -122 160 165 0
-19 50 -122 -160 -165 0
-19 -50 122 160 165 0
-19 -50 122 -160 -165 0
-19 -50 -122 160 -165 0
-19 -50 -122 -160 165 0
88 148 154 162 165 0
88 148 154 -162 -165 0
88 148 -154 162 -165 0
88 148 -154 -162 165 0
88 -148 154 162 -165 0
88 -148 154 -162 165 0
88 -148 -154 162 165 0
88 -148 -154 -162 -165 0
-88 148 154 162 -165 0
-88 148 154 -162 165 0
-88 148 -154 162 165 0
-88 148 -154 -162 -165 0
-88 -148 154 162 165 0
-88 -148 154 -162 -165 0
-88 -148 -154 162 -165 0
-88 -148 -154 -162 165 0
10 120 131 166 -167 0
10 120 131 -166 167 0
10 120 -131 166 167 0
10 120 -131 -166 -167 0
10 -120 131 166 167 0
10 -120 131 -166 -167 0
10 -120 -131 166 -167 0
10 -120 -131 -166 167 0
-10 120 131 166 167 0
-10 120 131 -166 -167 0
-10 120 -131 166 -167 0
-10 120 -131 -166 167 0
-10 -120 131 166 -167 0
-10 -120 131 -166 167 0
-10 -120 -131 166 167 0
-10 -120 -131 -166 -167 0
69 134 168 169 170 0
69 134 168 -169 -170 0
69 134 -168 169 -170 0
69 134 -168 -169 170 0
69 -134 168 169 -170 0
69 -134 168 -169 170 0
69 -134 -168 169 170 0
69 -134 -168 -169 -170 0
-69 134 168 169 -170 0
-69 134 168 -169 170 0
-69 134 -168 169 170 0
-69 134 -168 -169 -170 0
-69 -134 168 169 170 0
-69 -134 168 -169 -170 0
-69 -134 -168 169 -170 0
-69 -134 -168 -169 170 0
92 118 152 164 171 0
92 118 152 -164 -171 0
92 118 -152 164 -171 0
92 118 -152 -164 171 0
92 -118 152 164 -171 0
92 -118 152 -164 171 0
92 -118 -152 164 171 0
92 -118 -152 -164 -171 0
-92 118 152 164 -171 0
-92 118 152 -164 171 0
-92 118 -152 164 171 0
-92 118 -152 -164 -171 0
-92 -118 152 164 171 0
-92 -118 152 -164 -171 0
-92 -118 -152 164 -171 0
-92 -118 -152 -164 171 0
70 76 97 123 -150 0
70 76 97 -123 150 0
70 76 -97 123 150 0
70 76 -97 -123 -150 0
70 -76 97 123 150 0
70 -76 97 -123 -150 0
70 -76 -97 123 -150 0
70 -76 -97 -123 150 0
-70 76 97 123 150 0
-70 76 97 -123 -150 0
-70 76 -97 123 -150 0
-70 76 -97 -123 150 0
-70 -76 97 123 -150 0
-70 -76 97 -123 150 0
-70 -76 -97 123 150 0
-70 -76 -97 -123 -150 0
81 119 124 166 172 0
81 119 124 -166 -172 0
81 119 -124 166 -172 0
81 119 -124 -166 172 0
81 -119 124 166 -172 0
81 -119 124 -166 172 0
81 -119 -124 166 172 0
81 -119 -124 -166 -172 0
-81 119 124 166 -172 0
-81 119 124 -166 172 0
-81 119 -124 166 172 0
-81 119 -124 -166 -172 0
-81 -119 124 166 172 0
-81 -119 124 -166 -172 0
-81 -119 -124 166 -172 0
-81 -119 -124 -166 172 0
71 142 155 168 -173 0
71 142 155 -168 173 0
71 142 -155 168 173 0
71 142 -155 -168 -173 0
71 -142 155 168 173 0
71 -142 155 -168 -173 0
71 -142 -155 168 -173 0
71 -142 -155 -168 173 0
-71 142 155 168 173 0
-71 142 155 -168 -173 0
-71 142 -155 168 -173 0
-71 142 -155 -168 173 0
-71 -142 155 168 -173 0
-71 -142 155 -168 173 0
-71 -142 -155 168 173 0
-71 -142 -155 -168 -173 0
125 167 169 171 -174 0
125 167 169 -171 174 0
125 167 -169 171 174 0
125 167 -169 -171 -174 0
125 -167 169 171 174 0
125 -167 169 -171 -174 0
125 -167 -169 171 -174 0
125 -167 -169 -171 174 0
-125 167 169 171 174 0
-125 167 169 -171 -174 0
-125 167 -169 171 -174 0
-125 167 -169 -171 174 0
-125 -167 169 171 -174 0
-125 -167 169 -171 174 0
-125 -167 -169 171 174 0
-125 -167 -169 -171 -174 0
77 98 143 149 151 0
77 98 143 -149 -151 0
77 98 -143 149 -151 0
77 98 -143 -149 151 0
77 -98 143 149 -151 0
77 -98 143 -149 151 0
77 -98 -143 149 151 0
77 -98 -143 -149 -151 0
-77 98 143 149 -151 0
-77 98 143 -149 151 0
-77 98 -143 149 151 0
-77 98 -143 -149 -151 0
-77 -98 143 149 151 0
-77 -98 143 -149 -151 0
-77 -98 -143 149 -151 0
-77 -98 -143 -149 151 0
5 51 112 156 175 0
5 51 112 -156 -175 0
5 51 -112 156 -175 0
5 51 -112 -156 175 0
5 -51 112 156 -175 0
5 -51 112 -156 175 0
5 -51 -112 156 175 0
5 -51 -112 -156 -175 0
-5 51 112 156 -175 0
-5 51 112 -156 175 0
-5 51 -112 156 175 0
-5 51 -112 -156 -175 0
-5 -51 112 156 175 0
-5 -51 112 -156 -175 0
-5 -51 -112 156 -175 0
-5 -51 -112 -156 175 0
44 106 113 158 159 0
44 106 113 -158 -159 0
44 106 -113 158 -159 0
44 106 -113 -158 159 0
44 -106 113 158 -159 0
44 -106 113 -158 159 0
44 -106 -113 158 159 0
44 -106 -113 -158 -159 0
-44 106 113 158 -159 0
-44 106 113 -158 159 0
-44 106 -113 158 159 0
-44 106 -113 -158 -159 0
-44 -106 113 158 159 0
-44 -106 113 -158 -159 0
-44 -106 -113 158 -159 0
-44 -106 -113 -158 159 0
102 110 114 140 -173 0
102 110 114 -140 173 0
102 110 -114 140 173 0
102 110 -114 -140 -173 0
102 -110 114 140 173 0
102 -110 114 -140 -173 0
102 -110 -114 140 -173 0
102 -110 -114 -140 173 0
-102 110 114 140 173 0
-102 110 114 -140 -173 0
-102 110 -114 140 -173 0
-102 110 -114 -140 173 0
-102 -110 114 140 -173 0
-102 -110 114 -140 173 0
-102 -110 -114 140 173 0
-102 -110 -114 -140 -173 0
65 93 115 129 170 0
65 93 115 -129 -170 0
65 93 -115 129 -170 0
65 93 -115 -129 170 0
65 -93 115 129 -170 0
65 -93 115 -129 170 0
65 -93 -115 129 170 0
65 -93 -115 -129 -170 0
-65 93 115 129 -170 0
-65 93 115 -129 170 0
-65 93 -115 129 170 0
-65 93 -115 -129 -170 0
-65 -93 115 129 170 0
-65 -93 115 -129 -170 0
-65 -93 -115 129 -170 0
-65 -93 -115 -129 170 0
23 66 144 172 -175 0
23 66 144 -172 175 0
23 66 -144 172 175 0
23 66 -144 -172 -175 0
23 -66 144 172 175 0
23 -66 144 -172 -175 0
23 -66 -144 172 -175 0
23 -66 -144 -172 175 0
-23 66 144 172 175 0
-23 66 144 -172 -175 0
-23 66 -144 172 -175 0
-23 66 -144 -172 175 0
-23 -66 144 172 -175 0
-23 -66 144 -172 175 0
-23 -66 -144 172 175 0
-23 -66 -144 -172 -175 0
24 89 132 137 163 0
24 89 132 -137 -163 0
24 89 -132 137 -163 0
24 89 -132 -137 163 0
24 -89 132 137 -163 0
24 -89 132 -137 163 0
24 -89 -132 137 163 0
24 -89 -132 -137 -163 0
-24 89 132 137 -163 0
-24 89 132 -137 163 0
-24 89 -132 137 163 0
-24 89 -132 -137 -163 0
-24 -89 132 137 163 0
-24 -89 132 -137 -163 0
-24 -89 -132 137 -163 0
-24 -89 -132 -137 163 0
78 130 135 138 -174 0
78 130 135 -138 174 0
78 130 -135 138 174 0
78 130 -135 -138 -174 0
78 -130 135 138 174 0
78 -130 135 -138 -174 0
78 -130 -135 138 -174 0
78 -130 -135 -138 174 0
-78 130 135 138 174 0
-78 130 135 -138 -174 0
-78 130 -135 138 -174 0
-78 130 -135 -138 174 0
-78 -130 135 138 -174 0
-78 -130 135 -138 174 0
-78 -130 -135 138 174 0
-78 -130 -135 -138 -174 0
